benchmarks_clean/reformatted_nope_benchmarks/SelectedExamples/fg_mpg_example1/Implication6.sy.out
(
(define-fun fresh6 ((a Int) (b Int) (c Int) (fresh3 Int) (fresh4 Int) (fresh5 Int)) Int (+ c fresh3))
(define-fun fresh7 ((a Int) (b Int) (c Int) (fresh3 Int) (fresh4 Int) (fresh5 Int)) Int (+ b fresh4))
(define-fun fresh8 ((a Int) (b Int) (c Int) (fresh3 Int) (fresh4 Int) (fresh5 Int)) Int (+ fresh5 a))
)
